RT is False
Default write of storage_offers_DA.csv just to have a file (but constraint should be inactive)
Reading model...
...model read.
creating competitive generators file...
...competitive generators recorded.
Loading data...
.. day-ahead data read.
Compiling instance...
...instance created.
Creating Offer Mitigation (model will solve as dispatch if TRUE)...
NOTE: storage offers will not be mitigated
...storage offer mitigation file created
Converting model to MPEC...
...converted
NOTE: initial MIP solve with only storage competitive to get feasible solution
Solving...

Welcome to IBM(R) ILOG(R) CPLEX(R) Interactive Optimizer 12.9.0.0
  with Simplex, Mixed Integer & Barrier Optimizers
5725-A06 5725-A29 5724-Y48 5724-Y49 5724-Y54 5724-Y55 5655-Y21
Copyright IBM Corp. 1988, 2019.  All Rights Reserved.

Type 'help' for a list of available commands.
Type 'help' followed by a command name for more
information on commands.

CPLEX> Logfile 'cplex.log' closed.
Logfile 'C:\Users\Luke\Desktop\test919\logs\tmphbz25h3v.cplex.log' open.
CPLEX> New value for parallel optimization mode: -1
CPLEX> New value for mixed integer optimality gap tolerance: 0.01
CPLEX> New value for integrality tolerance: 1e-09
CPLEX> New value for feasibility tolerance: 0.01
CPLEX> New value for deterministic time limit in ticks: 75000
CPLEX> Problem 'C:\Users\Luke\Desktop\test919\logs\tmphvdco9d2.pyomo.lp' read.
Read time = 0.20 sec. (14.73 ticks)
CPLEX> Problem name         : C:\Users\Luke\Desktop\test919\logs\tmphvdco9d2.pyomo.lp
Objective sense      : Maximize
Variables            :   53805  [Nneg: 1,  Box: 22000,  Free: 4464,
                                 Binary: 27340]
Objective nonzeros   :    9025
Linear constraints   :  123205  [Less: 41346,  Greater: 59096,  Equal: 22763]
  Nonzeros           :  291749
  RHS nonzeros       :   67487

Variables            : Min LB: -5000.000        Max UB: 1000000.       
Objective nonzeros   : Min   : 0.1000000        Max   : 2500.000       
Linear constraints   :
  Nonzeros           : Min   : 0.1000000        Max   : 1000000.       
  RHS nonzeros       : Min   : 0.1000000        Max   : 1000000.       
CPLEX> CPXPARAM_Parallel                                -1
CPXPARAM_Simplex_Tolerances_Feasibility          0.01
CPXPARAM_DetTimeLimit                            75000
CPXPARAM_MIP_Tolerances_MIPGap                   0.01
CPXPARAM_MIP_Tolerances_Integrality              1.0000000000000001e-09
Tried aggregator 3 times.
MIP Presolve eliminated 88644 rows and 18966 columns.
MIP Presolve added 3376 rows and 0 columns.
MIP Presolve modified 24838 coefficients.
Aggregator did 13007 substitutions.
Reduced MIP has 24930 rows, 21274 columns, and 71092 nonzeros.
Reduced MIP has 8417 binaries, 0 generals, 0 SOSs, and 0 indicators.
Presolve time = 0.25 sec. (173.74 ticks)
Probing fixed 405 vars, tightened 2859 bounds.
Probing time = 1.41 sec. (891.98 ticks)
Tried aggregator 2 times.
MIP Presolve eliminated 915 rows and 813 columns.
MIP Presolve modified 2209 coefficients.
Aggregator did 37 substitutions.
Reduced MIP has 23978 rows, 20424 columns, and 68328 nonzeros.
Reduced MIP has 8011 binaries, 0 generals, 0 SOSs, and 0 indicators.
Presolve time = 0.11 sec. (70.42 ticks)
Probing fixed 4 vars, tightened 12 bounds.
Probing time = 0.20 sec. (117.08 ticks)
Clique table members: 9263.
MIP emphasis: balance optimality and feasibility.
MIP search method: dynamic search.
Parallel mode: opportunistic, using up to 24 threads.
Root relaxation solution time = 0.39 sec. (488.15 ticks)

        Nodes                                         Cuts/
   Node  Left     Objective  IInf  Best Integer    Best Bound    ItCnt     Gap

      0     0     2378.1860   657                   2378.1860     5923         
      0     0     2378.1860     3                    Fract: 4     5926         
      0     0     2378.1860     3                 Flowcuts: 1     5927         
      0     2     2378.1860     3                 Impl Bds: 1     5927         
Elapsed time = 7.67 sec. (4592.16 ticks, tree = 0.02 MB, solutions = 4)
*    23+   31                         -142.8294     2201.6025              --- 
    418    43     2092.9234     1     -142.8294     2172.0293     6399     --- 
*   701   203      integral     0      527.4761     2172.0293     7769  311.78%
    755    71        cutoff            527.4761     2172.0293     6987  311.78%
   1012   283        cutoff            527.4761     2172.0293     8215  311.78%
   1249   457      607.8035     3      527.4761     2172.0293     9796  311.78%
   1452   475        cutoff            527.4761     2172.0293    10038  311.78%
   1595   522     1889.6210     1      527.4761     2172.0293    10424  311.78%
   1700   545      988.3803     1      527.4761     2172.0293    11239  311.78%
   1789   539        cutoff            527.4761     2172.0293    11678  311.78%
   2097   573     1570.6196     1      527.4761     2172.0293    11864  311.78%
Elapsed time = 12.86 sec. (7502.61 ticks, tree = 2.53 MB, solutions = 8)
   2327   577     1723.1779     1      527.4761     2172.0293    11906  311.78%
   2540   580     1570.6196     1      527.4761     2172.0293    12155  311.78%
   2726   579        cutoff            527.4761     2172.0293    12212  311.78%
   2912   581        cutoff            527.4761     2172.0293    12388  311.78%
   3075   582     1491.5138     1      527.4761     2172.0293    12463  311.78%
   3217   581     1570.6196     1      527.4761     2172.0293    12549  311.78%
   3348   580        cutoff            527.4761     2172.0293    12542  311.78%
   3488   579        cutoff            527.4761     2172.0293    12608  311.78%
   3620   578        cutoff            527.4761     2172.0293    12731  311.78%
   3740   578     2172.0293     1      527.4761     2172.0293    12779  311.78%
Elapsed time = 22.67 sec. (17096.95 ticks, tree = 2.38 MB, solutions = 8)
   3856   581        cutoff            527.4761     2172.0293    12813  311.78%
   3981   581     1802.2837     1      527.4761     2172.0293    12795  311.78%
   4098   584        cutoff            527.4761     2172.0293    12928  311.78%
   4204   585     1968.7269     1      527.4761     2172.0293    12940  311.78%
   4350   605        cutoff            527.4761     2172.0293    13332  311.78%
   4479   585        cutoff            527.4761     2172.0293    13078  311.78%
   4600   583      715.3125     1      527.4761     2172.0293    13220  311.78%
   4710   582        cutoff            527.4761     2172.0293    13227  311.78%
   4811   604        cutoff            527.4761     2172.0293    13510  311.78%
   4910   603        cutoff            527.4761     2172.0293    13411  311.78%
Elapsed time = 32.52 sec. (26718.97 ticks, tree = 2.59 MB, solutions = 8)
   5044   606     1570.6196     1      527.4761     2172.0293    13559  311.78%
   5154   604     1570.6196     1      527.4761     2172.0293    13529  311.78%
   5249   633     1570.6196     1      527.4761     2172.0293    13753  311.78%
   5347   633     1802.2837     1      527.4761     2172.0293    13773  311.78%
   5436   633        cutoff            527.4761     2172.0293    13830  311.78%
   5536   637        cutoff            527.4761     2172.0293    13957  311.78%
   5638   641     1802.2837     3      527.4761     2172.0293    13970  311.78%
   5736   640      715.3125     1      527.4761     2172.0293    14047  311.78%
   5813   638     1368.3342     1      527.4761     2172.0293    14001  311.78%
   5920   648     1802.2837     1      527.4761     2172.0293    14042  311.78%
Elapsed time = 41.69 sec. (36327.70 ticks, tree = 2.70 MB, solutions = 8)
   6005   657     2172.0293     1      527.4761     2172.0293    14107  311.78%
   6095   691     1889.6210     3      527.4761     2172.0293    14247  311.78%
   6188   710        cutoff            527.4761     2172.0293    14365  311.78%
   6279   756      715.3125     1      527.4761     2172.0293    14640  311.78%
   6367   732     1570.6196     1      527.4761     2172.0293    14471  311.78%
   6441   774     1570.6196     1      527.4761     2172.0293    14769  311.78%
   6537   744     1723.1779     1      527.4761     2172.0293    14601  311.78%
   6627   757        cutoff            527.4761     2172.0293    14651  311.78%
   6720   759     1368.3342     3      527.4761     2172.0293    14650  311.78%
   6768   762      988.3803     1      527.4761     2172.0293    14686  311.78%
Elapsed time = 52.09 sec. (45973.08 ticks, tree = 3.28 MB, solutions = 8)
   6849   777     1968.7269     1      527.4761     2172.0293    14761  311.78%
   6928   801     1723.1779     1      527.4761     2172.0293    14982  311.78%
   7004   800        cutoff            527.4761     2172.0293    14990  311.78%
   7065   813     1570.6196     1      527.4761     2172.0293    15124  311.78%
   7154   803        cutoff            527.4761     2172.0293    15041  311.78%
   7222   817     1723.1779     2      527.4761     2172.0293    15196  311.78%
   7276   819     1570.6196     1      527.4761     2172.0293    15262  311.78%
   7341   819     1802.2837     1      527.4761     2172.0293    15242  311.78%
   7417   824        cutoff            527.4761     2172.0293    15313  311.78%
   7477   819     1570.6196     1      527.4761     2172.0293    15258  311.78%
Elapsed time = 61.50 sec. (55732.60 ticks, tree = 3.52 MB, solutions = 8)
   7538   834      909.2745     1      527.4761     2172.0293    15442  311.78%
   7601   827     1570.6196     1      527.4761     2172.0293    15400  311.78%
   7649   835     1644.0721     1      527.4761     2172.0293    15465  311.78%
   7717   863     1723.1779     1      527.4761     2172.0293    15830  311.78%
   7782   863     1723.1779     1      527.4761     2172.0293    15832  311.78%
   7846   836        cutoff            527.4761     2172.0293    15522  311.78%
   7924   844     1723.1779     1      527.4761     2172.0293    15584  311.78%
   7966   888        cutoff            527.4761     2172.0293    16002  311.78%
   8030   842      909.2745     1      527.4761     2172.0293    15616  311.78%
   8090   855        cutoff            527.4761     2172.0293    15681  311.78%
Elapsed time = 70.78 sec. (65435.15 ticks, tree = 3.79 MB, solutions = 8)
   8147   882        cutoff            527.4761     2172.0293    15943  311.78%
   8215   886        cutoff            527.4761     2172.0293    15981  311.78%
   8265   893      909.2745     1      527.4761     2172.0293    16067  311.78%
   8327   888     1968.7269     1      527.4761     2172.0293    15998  311.78%
   8396   915     1802.2837     1      527.4761     2172.0293    16328  311.78%
   8447   902        cutoff            527.4761     2172.0293    16172  311.78%
   8512   909     1723.1779     1      527.4761     2172.0293    16266  311.78%
   8566   914     1570.6196     1      527.4761     2172.0293    16293  311.78%
   8604   923     1968.7269     1      527.4761     2172.0293    16388  311.78%
   8621   921     1491.5138     1      527.4761     2172.0293    16376  311.78%
Elapsed time = 77.09 sec. (75216.49 ticks, tree = 4.03 MB, solutions = 8)
   8627   926     1570.6196     1      527.4761     2172.0293    16435  311.78%

Cover cuts applied:  1
Implied bound cuts applied:  1
Flow cuts applied:  1
Gomory fractional cuts applied:  4

Root node processing (before b&c):
  Real time             =    7.16 sec. (4556.37 ticks)
Parallel b&c, 24 threads:
  Real time             =   70.22 sec. (71871.07 ticks)
  Sync time (average)   =    0.19 sec.
  Wait time (average)   =    0.00 sec.
                          ------------
Total (root+branch&cut) =   77.38 sec. (76427.44 ticks)

Solution pool: 8 solutions saved.

MIP - Deterministic time limit exceeded, integer feasible:  Objective =  5.2747613228e+02
Current MIP best bound =  2.1720292619e+03 (gap = 1644.55, 311.78%)
Solution time =   77.38 sec.  Iterations = 16854  Nodes = 8628 (974)
Deterministic time = 76427.59 ticks  (987.76 ticks/sec)

CPLEX> Incumbent solution written to file 'C:\Users\Luke\Desktop\test919\logs\tmp1qq6rp7v.cplex.sol'.
CPLEX> NOTE: no warmstart specified for MIP iteration, default behavior is true
NOTE: resolving with all competitive generators using storage-only solution to warmstart
Solving...

Welcome to IBM(R) ILOG(R) CPLEX(R) Interactive Optimizer 12.9.0.0
  with Simplex, Mixed Integer & Barrier Optimizers
5725-A06 5725-A29 5724-Y48 5724-Y49 5724-Y54 5724-Y55 5655-Y21
Copyright IBM Corp. 1988, 2019.  All Rights Reserved.

Type 'help' for a list of available commands.
Type 'help' followed by a command name for more
information on commands.

CPLEX> Logfile 'cplex.log' closed.
Logfile 'C:\Users\Luke\Desktop\test919\logs\tmp7uvu1joo.cplex.log' open.
CPLEX> New value for parallel optimization mode: -1
CPLEX> New value for mixed integer optimality gap tolerance: 0.01
CPLEX> New value for integrality tolerance: 1e-09
CPLEX> New value for feasibility tolerance: 0.01
CPLEX> New value for deterministic time limit in ticks: 75000
CPLEX> Problem 'C:\Users\Luke\Desktop\test919\logs\tmpyv59tmlw.pyomo.lp' read.
Read time = 0.20 sec. (14.75 ticks)
CPLEX> MIP start file 'C:\Users\Luke\Desktop\test919\logs\tmpxup32w9g.cplex.mst' read.
CPLEX> Problem name         : C:\Users\Luke\Desktop\test919\logs\tmpyv59tmlw.pyomo.lp
Objective sense      : Maximize
Variables            :   54525  [Nneg: 1,  Box: 22720,  Free: 4464,
                                 Binary: 27340]
Objective nonzeros   :    9745
Linear constraints   :  123205  [Less: 41346,  Greater: 59096,  Equal: 22763]
  Nonzeros           :  291749
  RHS nonzeros       :   67487

Variables            : Min LB: -5000.000        Max UB: 1000000.       
Objective nonzeros   : Min   : 0.1000000        Max   : 2500.000       
Linear constraints   :
  Nonzeros           : Min   : 0.1000000        Max   : 1000000.       
  RHS nonzeros       : Min   : 0.1000000        Max   : 1000000.       
CPLEX> CPXPARAM_Parallel                                -1
CPXPARAM_Simplex_Tolerances_Feasibility          0.01
CPXPARAM_DetTimeLimit                            75000
CPXPARAM_MIP_Tolerances_MIPGap                   0.01
CPXPARAM_MIP_Tolerances_Integrality              1.0000000000000001e-09
Warning:  No solution found from 1 MIP starts.
Retaining values of one MIP start for possible repair.
Tried aggregator 3 times.
MIP Presolve eliminated 88644 rows and 19686 columns.
MIP Presolve added 3376 rows and 0 columns.
MIP Presolve modified 24838 coefficients.
Aggregator did 13007 substitutions.
Reduced MIP has 24930 rows, 21274 columns, and 71092 nonzeros.
Reduced MIP has 8417 binaries, 0 generals, 0 SOSs, and 0 indicators.
Presolve time = 0.23 sec. (174.10 ticks)
Probing fixed 405 vars, tightened 2859 bounds.
Probing time = 1.44 sec. (891.98 ticks)
Tried aggregator 2 times.
MIP Presolve eliminated 915 rows and 813 columns.
MIP Presolve modified 2209 coefficients.
Aggregator did 37 substitutions.
Reduced MIP has 23978 rows, 20424 columns, and 68328 nonzeros.
Reduced MIP has 8011 binaries, 0 generals, 0 SOSs, and 0 indicators.
Presolve time = 0.09 sec. (70.42 ticks)
Probing fixed 4 vars, tightened 12 bounds.
Probing time = 0.19 sec. (117.08 ticks)
Clique table members: 9263.
MIP emphasis: balance optimality and feasibility.
MIP search method: dynamic search.
Parallel mode: opportunistic, using up to 24 threads.
Root relaxation solution time = 0.41 sec. (488.15 ticks)

        Nodes                                         Cuts/
   Node  Left     Objective  IInf  Best Integer    Best Bound    ItCnt     Gap

      0     0     2378.1860   657                   2378.1860     5923         
      0     0     2378.1860     3                    Fract: 4     5926         
      0     0     2378.1860     3                 Flowcuts: 1     5927         
Repair heuristic found nothing.
      0     2     2378.1860     3                 Impl Bds: 1     5927         
Elapsed time = 7.92 sec. (4680.25 ticks, tree = 0.02 MB, solutions = 1)
*    18+   28                         -142.8294     2201.6025              --- 
    400    61     1113.2325     2     -142.8294     2172.0293     7295     --- 
    725    98     2289.8637     1     -142.8294     2172.0293     7533     --- 
*   748   322      integral     0       14.3733     2172.0293     8803     --- 
    939   288        cutoff            606.5820     2172.0293     8658  258.08%
   1170   416     1889.6210     1      606.5820     2172.0293     9973  258.08%
   1333   512        cutoff            606.5820     2172.0293    10567  258.08%
   1490   508      715.3125     1      606.5820     2172.0293    10507  258.08%
   1614   636     1180.4979     2      606.5820     2172.0293    11780  258.08%
   1743   661     1179.8445     6      606.5820     2172.0293    11894  258.08%
   2116   638        cutoff            606.5820     2172.0293    11837  258.08%
Elapsed time = 13.36 sec. (7574.38 ticks, tree = 3.00 MB, solutions = 8)
   2361   723     1570.6196     1      606.5820     2172.0293    12553  258.08%
   2561   729        cutoff            606.5820     2172.0293    12913  258.08%
   2743   728     1968.7269     1      606.5820     2172.0293    12937  258.08%
   2919   728        cutoff            606.5820     2172.0293    13034  258.08%
   3077   727        cutoff            606.5820     2172.0293    13061  258.08%
   3226   728     1344.2583     1      606.5820     2172.0293    13143  258.08%
   3372   730        cutoff            606.5820     2172.0293    13303  258.08%
   3497   728        cutoff            606.5820     2172.0293    13323  258.08%
   3619   728        cutoff            606.5820     2172.0293    13409  258.08%
   3733   730     2002.4171     1      606.5820     2172.0293    13363  258.08%
Elapsed time = 23.27 sec. (17175.58 ticks, tree = 3.58 MB, solutions = 8)
   3842   731        cutoff            606.5820     2172.0293    13508  258.08%
   3950   728        cutoff            606.5820     2172.0293    13568  258.08%
   4074   729        cutoff            606.5820     2172.0293    13628  258.08%
   4182   729        cutoff            606.5820     2172.0293    13604  258.08%
   4283   732     1968.7269     1      606.5820     2172.0293    13675  258.08%
   4377   730        cutoff            606.5820     2172.0293    13752  258.08%
   4472   731     1570.6196     1      606.5820     2172.0293    13810  258.08%
   4563   731     1570.6196     1      606.5820     2172.0293    13813  258.08%
   4649   730        cutoff            606.5820     2172.0293    13877  258.08%
   4725   736      715.3125     1      606.5820     2172.0293    13902  258.08%
Elapsed time = 32.55 sec. (26806.59 ticks, tree = 3.80 MB, solutions = 8)
   4809   732        cutoff            606.5820     2172.0293    14007  258.08%
   4891   732        cutoff            606.5820     2172.0293    14002  258.08%
   4983   738        cutoff            606.5820     2172.0293    14042  258.08%
   5071   737     1889.6210     1      606.5820     2172.0293    14089  258.08%
   5137   736        cutoff            606.5820     2172.0293    14134  258.08%
   5218   742        cutoff            606.5820     2172.0293    14211  258.08%
   5315   742        cutoff            606.5820     2172.0293    14199  258.08%
   5397   741     1723.1779     1      606.5820     2172.0293    14175  258.08%
   5477   788        cutoff            606.5820     2172.0293    14448  258.08%
   5546   759     1491.5138     1      606.5820     2172.0293    14302  258.08%
Elapsed time = 41.58 sec. (36407.07 ticks, tree = 3.47 MB, solutions = 8)
   5643   790        cutoff            606.5820     2172.0293    14479  258.08%
   5712   827     1889.6210     3      606.5820     2172.0293    14662  258.08%
   5778   805        cutoff            606.5820     2172.0293    14572  258.08%
   5874   830        cutoff            606.5820     2172.0293    14691  258.08%
   5951   818     1723.1779     1      606.5820     2172.0293    14609  258.08%
   6021   864     1968.7269     1      606.5820     2172.0293    14812  258.08%
   6075   874        cutoff            606.5820     2172.0293    14865  258.08%
   6128   891        cutoff            606.5820     2172.0293    14967  258.08%
   6200   880        cutoff            606.5820     2172.0293    14887  258.08%
   6274   878     2092.9234     1      606.5820     2172.0293    14878  258.08%
Elapsed time = 50.67 sec. (46146.06 ticks, tree = 4.42 MB, solutions = 8)
   6325   905        cutoff            606.5820     2172.0293    15096  258.08%
   6396   920        cutoff            606.5820     2172.0293    15280  258.08%
   6465   906     1121.4717     3      606.5820     2172.0293    15126  258.08%
   6526   921     1491.5138     3      606.5820     2172.0293    15303  258.08%
   6581   904     1889.6210     1      606.5820     2172.0293    15074  258.08%
   6644   908     2092.9234     1      606.5820     2172.0293    15174  258.08%
   6711   922     1491.5138     1      606.5820     2172.0293    15307  258.08%
   6756   927     1570.6196     1      606.5820     2172.0293    15376  258.08%
   6824   933     1570.6196     3      606.5820     2172.0293    15488  258.08%
   6885   928        cutoff            606.5820     2172.0293    15411  258.08%
Elapsed time = 59.80 sec. (55786.94 ticks, tree = 4.79 MB, solutions = 8)
   6938   927     1570.6196     1      606.5820     2172.0293    15380  258.08%
   6999   935        cutoff            606.5820     2172.0293    15547  258.08%
   7066   947     1570.6196     1      606.5820     2172.0293    15702  258.08%
   7114   954     1570.6196     1      606.5820     2172.0293    15800  258.08%
   7186   945        cutoff            606.5820     2172.0293    15698  258.08%
   7248   952        cutoff            606.5820     2172.0293    15795  258.08%
   7297   956        cutoff            606.5820     2172.0293    15867  258.08%
   7353   953        cutoff            606.5820     2172.0293    15809  258.08%
   7418   967     1344.2583     1      606.5820     2172.0293    15942  258.08%
   7473   958     1723.1779     1      606.5820     2172.0293    15841  258.08%
Elapsed time = 69.86 sec. (65603.55 ticks, tree = 5.43 MB, solutions = 8)
   7541   962     1570.6196     1      606.5820     2172.0293    15921  258.08%
   7587   978     1570.6196     1      606.5820     2172.0293    16062  258.08%
   7643   969        cutoff            606.5820     2172.0293    15971  258.08%
   7694   988        cutoff            606.5820     2172.0293    16176  258.08%
   7741  1005     1968.7269     1      606.5820     2172.0293    16343  258.08%
   7807   986     1889.6210     1      606.5820     2172.0293    16123  258.08%
   7847   989     1723.1779     1      606.5820     2172.0293    16145  258.08%
   7910  1019     1570.6196     1      606.5820     2172.0293    16485  258.08%
   7941  1007        cutoff            606.5820     2172.0293    16386  258.08%
   7990  1007     1968.7269     1      606.5820     2172.0293    16357  258.08%
Elapsed time = 77.39 sec. (75337.94 ticks, tree = 5.37 MB, solutions = 8)
   8004  1007     1889.6210     1      606.5820     2172.0293    16390  258.08%

Cover cuts applied:  2
Implied bound cuts applied:  1
Flow cuts applied:  1
Gomory fractional cuts applied:  4

Root node processing (before b&c):
  Real time             =    7.45 sec. (4644.53 ticks)
Parallel b&c, 24 threads:
  Real time             =   70.23 sec. (71898.08 ticks)
  Sync time (average)   =    0.18 sec.
  Wait time (average)   =    0.00 sec.
                          ------------
Total (root+branch&cut) =   77.69 sec. (76542.61 ticks)

Solution pool: 8 solutions saved.

MIP - Deterministic time limit exceeded, integer feasible:  Objective =  6.0658195474e+02
Current MIP best bound =  2.1720294009e+03 (gap = 1565.45, 258.08%)
Solution time =   77.69 sec.  Iterations = 16949  Nodes = 8006 (1074)
Deterministic time = 76542.76 ticks  (985.26 ticks/sec)

CPLEX> Incumbent solution written to file 'C:\Users\Luke\Desktop\test919\logs\tmpc9_lgsd4.cplex.sol'.
CPLEX> Exporting results... 
